32	0

0	1	2
7	1	3
8	2	4	5
3	1	6
3	1	6
7	3	7	8	9
10	1	10
3	1	10
1	1	10
4	1	11
6	1	12
9	1	13
8	1	14
4	2	15	16
8	1	17
7	1	17
4	1	18
10	1	19
2	1	20
5	1	21
10	1	22
5	1	23
5	1	24
6	2	25	27
6	1	26
5	1	28
8	1	28
10	2	29	31
3	1	30
5	1	32
6	1	32
0	0
